molecule {
0 2
C       -2.1055314255    1.3274020247   -1.0332231684
N       -1.3155224918    0.9656485301   -0.2394617482
C        0.9031785169   -0.0928122948   -0.0249893976
C       -0.3396905435    0.4996656561    0.6848674459
C       -0.9681349904   -0.5647993176    1.6000538016
N       -0.8027040433   -0.5810968047    2.8378289607
C        0.8238710856   -0.8379597743   -1.3257339624
C        1.3334040433    0.3546182119   -1.3911632012
H        1.6493413750   -0.3736973835    0.7242171183
H       -0.0243403009    1.3422241629    1.3091972206
H       -1.5532190948   -1.3500267797    1.0968501212
H        0.5378144500   -1.7568934054   -1.8133627232
H        1.7746173138    1.1536251250   -1.9661794494
}

set basis 6-31+g(d,p)
set maxiter 300
set guess sad
set reference uks
set scf_type df
#set e_convergence 1e-8
#set d_convergence 1e-8
#set dft_radial_points 99
#set dft_spherical_points 590

gradient('b3lyp')
